NAME 
ROWS
 N  OBJ
 G  R0      
 G  R1      
 G  R2      
 G  R3      
 G  R4      
 G  R5      
 G  R6      
 G  R7      
 G  R8      
 G  R9      
 G  R10     
 G  R11     
COLUMNS
    x0        OBJ       1
    x0        R0        1
    x0        R4        1
    x0        R5        1
    x0        R7        1
    x0        R8        1
    x0        R9        1
    x1        OBJ       1
    x1        R1        1
    x1        R3        1
    x1        R5        1
    x1        R6        1
    x1        R8        1
    x1        R10       1
    x2        OBJ       1
    x2        R2        1
    x2        R3        1
    x2        R4        1
    x2        R6        1
    x2        R7        1
    x2        R11       1
    x3        OBJ       1
    x3        R1        1
    x3        R2        1
    x3        R3        1
    x3        R6        1
    x3        R10       1
    x3        R11       1
    x4        OBJ       1
    x4        R0        1
    x4        R2        1
    x4        R4        1
    x4        R7        1
    x4        R9        1
    x4        R11       1
    x5        OBJ       1
    x5        R0        1
    x5        R1        1
    x5        R5        1
    x5        R8        1
    x5        R9        1
    x5        R10       1
    x6        OBJ       1
    x6        R1        1
    x6        R2        1
    x6        R3        1
    x6        R6        1
    x6        R10       1
    x6        R11       1
    x7        OBJ       1
    x7        R0        1
    x7        R2        1
    x7        R4        1
    x7        R7        1
    x7        R9        1
    x7        R11       1
    x8        OBJ       1
    x8        R0        1
    x8        R1        1
    x8        R5        1
    x8        R8        1
    x8        R9        1
    x8        R10       1
    x9        OBJ       1
    x9        R0        1
    x9        R4        1
    x9        R5        1
    x9        R7        1
    x9        R8        1
    x9        R9        1
    x10       OBJ       1
    x10       R1        1
    x10       R3        1
    x10       R5        1
    x10       R6        1
    x10       R8        1
    x10       R10       1
    x11       OBJ       1
    x11       R2        1
    x11       R3        1
    x11       R4        1
    x11       R6        1
    x11       R7        1
    x11       R11       1
RHS
    RHS1      R0        1
    RHS1      R1        1
    RHS1      R2        1
    RHS1      R3        1
    RHS1      R4        1
    RHS1      R5        1
    RHS1      R6        1
    RHS1      R7        1
    RHS1      R8        1
    RHS1      R9        1
    RHS1      R10       1
    RHS1      R11       1
BOUNDS
 UP BND1      x0        1
 UP BND1      x1        1
 UP BND1      x2        1
 UP BND1      x3        1
 UP BND1      x4        1
 UP BND1      x5        1
 UP BND1      x6        1
 UP BND1      x7        1
 UP BND1      x8        1
 UP BND1      x9        1
 UP BND1      x10       1
 UP BND1      x11       1
ENDATA
